p cnf 34 98
a 24 12 0
e 1 2 3 4 5 6 7 8 9 10 11 13 14 15 16 17 18 19 20 21 22 23 25 26 27 28 29 30 31 32 33 34 0
-4 -3 0
-4 3 0
5 2 0
5 -4 0
-2 4 -5 0
-6 -1 0
-6 5 0
1 -5 6 0
-8 6 0
-8 7 0
-6 -7 8 0
9 -5 -10 0
-9 5 -10 0
9 5 10 0
-9 -5 10 0
8 10 -11 0
-8 -10 -11 0
8 -10 11 0
-8 10 11 0
12 -9 -13 0
-12 9 -13 0
12 9 13 0
-12 -9 13 0
-14 -2 0
-14 -13 0
2 13 14 0
15 11 0
15 -14 0
-11 14 -15 0
5 16 -17 0
-5 -16 -17 0
5 -16 17 0
-5 16 17 0
-18 13 0
-18 17 0
-13 -17 18 0
19 12 0
19 13 0
-12 -13 -19 0
20 18 0
20 -19 0
-18 19 -20 0
-21 15 0
-21 20 0
-15 -20 21 0
22 9 0
22 12 0
-9 -12 -22 0
23 -16 0
23 5 0
16 -5 -23 0
-19 23 -24 0
19 -23 -24 0
-19 -23 24 0
19 23 24 0
17 -12 -25 0
-17 12 -25 0
17 12 25 0
-17 -12 25 0
-12 -13 -26 0
12 13 -26 0
-12 13 26 0
12 -13 26 0
26 -9 -27 0
-26 9 -27 0
26 9 27 0
-26 -9 27 0
28 25 0
28 27 0
-25 -27 -28 0
-24 -28 -29 0
24 28 -29 0
-24 28 29 0
24 -28 29 0
22 29 -30 0
-22 -29 -30 0
22 -29 30 0
-22 29 30 0
-21 -30 -31 0
21 30 -31 0
-21 30 31 0
21 -30 31 0
33 2 0
33 -32 0
-2 32 -33 0
34 31 0
34 -33 0
-31 33 -34 0
4 -32 -29 -16 -19 -1 25 0
-12 -24 -2 0
-10 -24 -22 -2 29 -3 0
-33 23 -18 30 0
-21 -22 -25 29 -30 16 0
14 -19 21 -4 0
19 13 -3 -29 -28 18 0
20 -16 -13 -23 -33 -6 -32 0
32 26 15 0
34 0
